# Solution for model F-JSSP-SDST
# Objective value = 1620
B0(13) 0
B1(13) 1
B2(17) 0
B3(14) 0
B4(13) 0
B5(13) 1
B6(15) 1
B7(14) 0
B8(8) 0
B9(14) 0
B10(14) 1
B11(14) 1
B12(13) 0
B13(15) 0
B14(14) 0
B15(10) 1
B16(8) 0
B17(13) 0
B18(13) 1
B19(8) 1
B20(16) 0
B21(14) 0
B22(15) 0
B23(14) 1
B24(10) 0
B25(13) 0
B26(13) 1
B27(15) 0
B28(13) 1
B29(16) 1
B30(10) 0
B31(14) 0
B32(14) 0
B33(14) 1
B34(15) 0
B35(16) 1
B36(12) 0
B37(13) 0
B38(10) 1
B39(0) 0
B40(0) 0
B41(0) 0
B42(4) 1
B43(4) 0
B44(0) 0
B45(4) 1
B46(2) 0
B47(0) 0
B48(4) 1
B49(2) 0
B50(0) 0
B51(6) 0
B52(2) 0
B53(0) 0
B54(0) 0
B55(0) 0
B56(0) 0
B57(2) 0
B58(4) 0
B59(0) 0
B60(4) 0
B61(2) 0
B62(2) 0
B63(4) 0
B64(0) 0
B65(2) 0
B66(4) 1
B67(2) 0
B68(0) 0
B69(0) 0
B70(0) 0
B71(0) 0
B72(0) 0
B73(2) 0
B74(4) 0
B75(0) 0
B76(4) 1
B77(4) 0
B78(0) 0
B79(2) 0
B80(2) 1
B81(0) 0
B82(4) 1
B83(2) 0
B84(0) 0
B85(0) 0
B86(0) 0
B87(0) 0
B88(0) 0
B89(0) 0
B90(2) 0
B91(2) 0
B92(0) 0
B93(2) 0
B94(2) 0
B95(0) 0
B96(4) 0
B97(2) 0
B98(0) 0
B99(0) 0
B100(0) 0
B101(0) 0
B102(0) 0
B103(0) 0
B104(0) 0
B105(2) 1
B106(4) 0
B107(2) 0
B108(2) 1
B109(2) 0
B110(2) 0
B111(4) 1
B112(4) 0
B113(0) 0
B114(0) 0
B115(0) 0
B116(0) 0
B117(0) 0
B118(0) 0
B119(0) 0
B120(0) 0
B121(2) 0
B122(4) 0
B123(0) 0
B124(2) 0
B125(2) 0
B126(0) 0
B127(2) 0
B128(4) 1
B129(0) 0
B130(0) 0
B131(0) 0
B132(0) 0
B133(0) 0
B134(0) 0
B135(0) 0
B136(0) 0
B137(0) 0
B138(4) 1
B139(0) 0
B140(0) 0
B141(4) 1
B142(0) 0
B143(0) 0
B144(0) 0
B145(0) 0
B146(0) 0
B147(0) 0
B148(0) 0
B149(0) 0
B150(0) 0
B151(0) 0
B152(0) 0
B153(0) 0
B154(2) 0
B155(2) 0
B156(2) 0
B157(4) 1
B158(0) 0
B159(0) 0
B160(0) 0
B161(0) 0
B162(0) 0
B163(0) 0
B164(0) 0
B165(0) 0
B166(0) 0
B167(0) 0
B168(0) 0
B169(2) 1
B170(4) 0
B171(0) 0
B172(4) 1
B173(4) 0
B174(0) 0
B175(0) 0
B176(0) 0
B177(0) 0
B178(0) 0
B179(0) 0
B180(0) 0
B181(0) 0
B182(0) 0
B183(0) 0
B184(0) 0
B185(0) 0
B186(4) 1
B187(0) 0
B188(0) 0
B189(0) 0
B190(0) 0
B191(0) 0
B192(0) 0
B193(0) 0
B194(0) 0
B195(0) 0
B196(0) 0
B197(0) 0
B198(0) 0
B199(0) 0
B200(0) 0
B201(2) 0
B202(4) 0
B203(2) 0
B204(0) 0
B205(0) 0
B206(0) 0
B207(0) 0
B208(0) 0
B209(0) 0
B210(0) 0
B211(0) 0
B212(0) 0
B213(0) 0
B214(0) 0
B215(0) 0
B216(0) 0
B217(2) 1
B218(2) 1
B219(0) 0
B220(0) 0
B221(0) 0
B222(0) 0
B223(0) 0
B224(0) 0
B225(0) 0
B226(0) 0
B227(0) 0
B228(0) 0
B229(0) 0
B230(0) 0
B231(0) 0
B232(0) 0
B233(0) 0
B234(0) 0
B235(0) 0
B236(0) 0
B237(0) 0
B238(0) 0
B239(0) 0
B240(0) 0
B241(0) 0
B242(0) 0
B243(0) 0
B244(0) 0
B245(0) 0
B246(0) 0
B247(0) 0
B248(0) 0
B249(0) 0
B250(0) 0
B251(0) 0
B252(0) 0
B253(0) 0
B254(0) 0
B255(0) 0
B256(0) 0
B257(0) 0
B258(0) 0
B259(0) 0
B260(0) 0
B261(0) 0
B262(0) 0
B263(0) 0
I264(14) 0
I265(14) 148
I266(18) 0
I267(18) 0
I268(16) 0
I269(16) 271
I270(18) 398
I271(18) 0
I272(12) 0
I273(15) 0
I274(15) 0
I275(16) 203
I276(16) 0
I277(18) 0
I278(17) 0
I279(13) 290
I280(11) 0
I281(14) 0
I282(14) 76
I283(10) 138
I284(18) 0
I285(16) 0
I286(18) 0
I287(18) 283
I288(14) 0
I289(14) 0
I290(14) 0
I291(17) 0
I292(15) 65
I293(19) 238
I294(13) 0
I295(15) 0
I296(15) 0
I297(15) 0
I298(17) 0
I299(19) 128
I300(15) 0
I301(16) 0
I302(14) 193
I303(1) 1620
B304(0) 0
B305(0) 0
B306(0) 0
B307(0) 0
B308(0) 0
B309(0) 0
B310(3) 1
B311(3) 0
B312(3) 0
B313(0) 0
B314(0) 0
B315(0) 0
B316(0) 0
B317(0) 0
B318(3) 0
B319(3) 1
B320(3) 0
B321(0) 0
B322(0) 0
B323(0) 0
B324(0) 0
B325(0) 0
B326(3) 0
B327(3) 1
B328(3) 0
B329(0) 0
B330(0) 0
B331(0) 0
B332(0) 0
B333(3) 1
B334(3) 0
B335(0) 0
B336(0) 0
B337(0) 0
B338(0) 0
B339(0) 0
B340(0) 0
B341(3) 0
B342(3) 1
